\* Zadachka *\
Maximize
OBJ: 100 x_0 + 190 x_1 + 200 x_2
Subject To
_C1: 100 x_0 + 510 x_1 + 1050 x_2 <= 100000
_C10: 10 x_2 >= 110
_C2: x_0 <= 100
_C3: x_1 <= 100
_C4: x_2 <= 100
_C5: 10 x_0 <= 90
_C6: 10 x_1 <= 150
_C7: 10 x_2 <= 120
_C8: 10 x_0 >= 80
_C9: 10 x_1 >= 140
Bounds
0 <= x_0
0 <= x_1
0 <= x_2
Generals
x_0
x_1
x_2
End
